p cnf 108 347
c t mc
4 -2 0
4 3 0
2 -3 -4 0
5 -1 0
5 4 0
1 -4 -5 0
8 6 0
8 -7 0
-6 7 -8 0
-9 -5 0
-9 8 0
5 -8 9 0
-4 10 -11 0
4 -10 -11 0
-4 -10 11 0
4 10 11 0
-13 6 0
-13 2 0
-6 -2 13 0
14 12 0
14 13 0
-12 -13 -14 0
-15 11 0
-15 14 0
-11 -14 15 0
-17 -16 0
-17 13 0
16 -13 17 0
-15 -17 -18 0
15 17 -18 0
-15 17 18 0
15 -17 18 0
19 20 -21 0
-19 -20 -21 0
19 -20 21 0
-19 20 21 0
13 -21 -22 0
-13 21 -22 0
13 21 22 0
-13 -21 22 0
2 22 -23 0
-2 -22 -23 0
2 -22 23 0
-2 22 23 0
23 -7 -24 0
-23 7 -24 0
23 7 24 0
-23 -7 24 0
25 -10 0
25 7 0
10 -7 -25 0
-26 25 0
-26 -7 0
-25 7 26 0
-19 -26 -27 0
19 26 -27 0
-19 26 27 0
19 -26 27 0
28 4 0
28 -25 0
-4 25 -28 0
-29 27 0
-29 -28 0
-27 28 29 0
-24 29 -30 0
24 -29 -30 0
-24 -29 30 0
24 29 30 0
31 18 0
31 -30 0
-18 30 -31 0
34 4 0
34 -33 0
-4 33 -34 0
35 34 0
35 33 0
-34 -33 -35 0
-36 -4 0
-36 35 0
4 -35 36 0
32 36 -37 0
-32 -36 -37 0
32 -36 37 0
-32 36 37 0
40 -1 0
40 39 0
1 -39 -40 0
-41 36 0
-41 40 0
-36 -40 41 0
30 -41 -42 0
-30 41 -42 0
30 41 42 0
-30 -41 42 0
-43 -38 0
-43 42 0
38 -42 43 0
-44 37 0
-44 -43 0
-37 43 44 0
46 -45 0
46 6 0
45 -6 -46 0
-47 1 0
-47 46 0
-1 -46 47 0
48 44 0
48 -47 0
-44 47 -48 0
-49 -42 0
-49 35 0
42 -35 49 0
-50 -48 0
-50 49 0
48 -49 50 0
31 50 -51 0
-31 -50 -51 0
31 -50 51 0
-31 50 51 0
-53 -2 0
-53 52 0
2 -52 53 0
54 53 0
54 53 0
-53 -54 0
22 14 -55 0
-22 -14 -55 0
22 -14 55 0
-22 14 55 0
-56 39 0
-56 -55 0
-39 55 56 0
58 -57 0
58 -39 0
57 39 -58 0
-60 21 0
-60 -59 0
-21 59 60 0
-46 11 -61 0
46 -11 -61 0
-46 -11 61 0
46 11 61 0
61 33 -62 0
-61 -33 -62 0
61 -33 62 0
-61 33 62 0
-63 -60 0
-63 -62 0
60 62 63 0
-64 58 0
-64 63 0
-58 -63 64 0
65 -33 0
65 61 0
33 -61 -65 0
-64 65 -66 0
64 -65 -66 0
-64 -65 66 0
64 65 66 0
-56 66 -67 0
56 -66 -67 0
-56 -66 67 0
56 66 67 0
68 54 0
68 -67 0
-54 67 -68 0
69 -12 0
69 -16 0
12 16 -69 0
-70 13 0
-70 -69 0
-13 69 70 0
-52 -12 -71 0
52 12 -71 0
-52 12 71 0
52 -12 71 0
-70 -71 -72 0
70 71 -72 0
-70 71 72 0
70 -71 72 0
73 -35 0
73 -45 0
35 45 -73 0
23 73 -74 0
-23 -73 -74 0
23 -73 74 0
-23 73 74 0
-34 74 -75 0
34 -74 -75 0
-34 -74 75 0
34 74 75 0
76 -72 0
76 75 0
72 -75 -76 0
77 -68 0
77 76 0
68 -76 -77 0
-78 1 0
-78 26 0
-1 -26 78 0
-78 -79 -80 0
78 79 -80 0
-78 79 80 0
78 -79 80 0
-81 6 0
-81 -20 0
-6 20 81 0
-81 -3 -82 0
81 3 -82 0
-81 3 82 0
81 -3 82 0
83 -80 0
83 -82 0
80 82 -83 0
-84 34 -85 0
84 -34 -85 0
-84 -34 85 0
84 34 85 0
-86 -83 0
-86 85 0
83 -85 86 0
87 77 0
87 86 0
-77 -86 -87 0
51 87 -88 0
-51 -87 -88 0
51 -87 88 0
-51 87 88 0
-89 -27 0
-89 -52 0
27 52 89 0
-32 -36 -90 0
32 36 -90 0
-32 36 90 0
32 -36 90 0
-91 -73 0
-91 55 0
73 -55 91 0
92 90 0
92 -91 0
-90 91 -92 0
93 -89 0
93 -92 0
89 92 -93 0
94 88 0
94 -93 0
-88 93 -94 0
-95 21 0
-95 40 0
-21 -40 95 0
96 -17 0
96 7 0
17 -7 -96 0
97 -26 0
97 -4 0
26 4 -97 0
-98 -96 0
-98 -97 0
96 97 98 0
99 -59 0
99 -16 0
59 16 -99 0
98 99 -100 0
-98 -99 -100 0
98 -99 100 0
-98 99 100 0
-101 38 0
-101 34 0
-38 -34 101 0
101 6 -102 0
-101 -6 -102 0
101 -6 102 0
-101 6 102 0
103 100 0
103 102 0
-100 -102 -103 0
-104 -95 0
-104 -103 0
95 103 104 0
-38 -26 -105 0
38 26 -105 0
-38 26 105 0
38 -26 105 0
106 -104 0
106 105 0
104 -105 -106 0
107 94 0
107 106 0
-94 -106 -107 0
9 -107 -108 0
-9 107 -108 0
9 107 108 0
-9 -107 108 0
-71 77 50 44 -74 -59 -81 -37 -9 -18 0
26 19 32 -62 0
24 -23 74 -85 -91 12 21 31 -25 0
-31 -11 0
101 89 88 96 83 17 55 0
32 41 -77 -39 -87 0
-60 69 -7 -51 -56 -103 0
-13 -32 44 102 -65 11 0
-39 65 0
-64 -104 -48 96 33 -69 105 75 62 -38 0
-59 -50 0
-55 -50 -65 89 -10 105 0
-68 -21 35 79 -58 -87 -85 0
57 7 41 9 -74 0
38 -65 17 -77 82 100 2 -12 -76 0
40 39 -44 0
-80 -73 17 -47 9 0
39 -10 24 -17 -8 -6 0
-106 -1 -42 0
-60 -81 -17 0
-36 95 -86 45 39 0
-108 -26 35 21 19 29 -4 2 -62 0
-62 44 -64 56 -53 0
-81 67 0
-43 -105 45 108 -76 0
75 19 -49 -106 90 -23 -77 56 -78 0
64 27 92 -32 -105 -72 53 -75 84 0
-102 50 -23 -75 -86 -82 87 13 -22 96 0
-59 88 -18 71 0
-68 -3 73 -50 37 -85 0
70 62 -46 -1 0
-40 42 -41 -66 54 0
-24 22 63 99 0
-23 -66 -52 7 -4 21 -68 22 -91 0
2 -19 64 27 -13 0
-103 -60 6 -66 0
-77 -14 26 0
66 -94 33 -104 0
9 -77 -1 -8 -22 -57 -67 0
-3 -56 -55 -38 103 2 0
54 36 -51 48 105 -29 59 103 0
-83 92 -39 0
-17 15 97 0
15 34 -35 -10 0
19 29 100 -66 0
66 97 -12 -68 59 -89 -87 28 -4 0
-48 -15 -40 -63 0
-93 89 -78 -37 27 -41 -49 0
31 57 103 89 -82 -79 0
80 -68 66 -107 -96 0
-45 35 -78 69 1 -48 46 54 0
-41 22 0
-57 76 94 -62 78 12 -28 -67 -66 0
108 0
